Ordonnancement/plne/source/petit_instance/3job/3job_11.dat
data;
param nombreJob := 3;
param nombreRessource := 3;
param duree := 1 4 2 7 3 5;
param capaciteRessource := 1 8 2 11 3 19;
param besoinRessource : 1 2 3 :=
                    1   2 7 4
                    2   3 7 1
                    3   1 5 1;
end;

