Ordonnancement/plne/source/glpk_resultat/3job/3job_11.sol
Problem:    glpsolRcpsp
Rows:       142
Columns:    49 (48 integer, 48 binary)
Non-zeros:  688
Status:     INTEGER OPTIMAL
Objective:  obj = 16 (MINimum)

   No.   Row name        Activity     Lower bound   Upper bound
------ ------------    ------------- ------------- -------------
     1 periode[1]                  4             4             = 
     2 periode[2]                  7             7             = 
     3 periode[3]                  5             5             = 
     4 complet[1,1]                4                           4 
     5 complet[1,2]                4                           4 
     6 complet[1,3]                4                           4 
     7 complet[1,4]                4                           4 
     8 complet[1,5]                4                           4 
     9 complet[1,6]                4                           4 
    10 complet[1,7]                4                           4 
    11 complet[1,8]                4                           4 
    12 complet[1,9]                4                           4 
    13 complet[1,10]
                                   4                           4 
    14 complet[1,11]
                                   4                           4 
    15 complet[1,12]
                                  -1                           4 
    16 complet[1,13]
                                   2                           4 
    17 complet[1,14]
                                   1                           4 
    18 complet[2,1]                7                           7 
    19 complet[2,2]                7                           7 
    20 complet[2,3]                7                           7 
    21 complet[2,4]                7                           7 
    22 complet[2,5]               -1                           7 
    23 complet[2,6]                5                           7 
    24 complet[2,7]                4                           7 
    25 complet[2,8]                3                           7 
    26 complet[2,9]                2                           7 
    27 complet[2,10]
                                   1                           7 
    28 complet[2,11]
                                   0                           7 
    29 complet[2,12]
                                   7                           7 
    30 complet[2,13]
                                   0                           7 
    31 complet[2,14]
                                   0                           7 
    32 complet[3,1]                3                           5 
    33 complet[3,2]                2                           5 
    34 complet[3,3]                1                           5 
    35 complet[3,4]                0                           5 
    36 complet[3,5]                5                           5 
    37 complet[3,6]                0                           5 
    38 complet[3,7]                0                           5 
    39 complet[3,8]                0                           5 
    40 complet[3,9]                0                           5 
    41 complet[3,10]
                                   0                           5 
    42 complet[3,11]
                                   0                           5 
    43 complet[3,12]
                                   0                           5 
    44 complet[3,13]
                                   0                           5 
    45 complet[3,14]
                                   0                           5 
    46 cmax[1,1]                  16            -0               
    47 cmax[1,2]                  16            -0               
    48 cmax[1,3]                  16            -0               
    49 cmax[1,4]                  16            -0               
    50 cmax[1,5]                  16            -0               
    51 cmax[1,6]                  16            -0               
    52 cmax[1,7]                  16            -0               
    53 cmax[1,8]                  16            -0               
    54 cmax[1,9]                  16            -0               
    55 cmax[1,10]                 16            -0               
    56 cmax[1,11]                 16            -0               
    57 cmax[1,12]                 16            -0               
    58 cmax[1,13]                  3            -0               
    59 cmax[1,14]                  2            -0               
    60 cmax[1,15]                  1            -0               
    61 cmax[1,16]                  0            -0               
    62 cmax[2,1]                  16            -0               
    63 cmax[2,2]                  16            -0               
    64 cmax[2,3]                  16            -0               
    65 cmax[2,4]                  16            -0               
    66 cmax[2,5]                  16            -0               
    67 cmax[2,6]                  10            -0               
    68 cmax[2,7]                   9            -0               
    69 cmax[2,8]                   8            -0               
    70 cmax[2,9]                   7            -0               
    71 cmax[2,10]                  6            -0               
    72 cmax[2,11]                  5            -0               
    73 cmax[2,12]                  4            -0               
    74 cmax[2,13]                 16            -0               
    75 cmax[2,14]                 16            -0               
    76 cmax[2,15]                 16            -0               
    77 cmax[2,16]                 16            -0               
    78 cmax[3,1]                  15            -0               
    79 cmax[3,2]                  14            -0               
    80 cmax[3,3]                  13            -0               
    81 cmax[3,4]                  12            -0               
    82 cmax[3,5]                  11            -0               
    83 cmax[3,6]                  16            -0               
    84 cmax[3,7]                  16            -0               
    85 cmax[3,8]                  16            -0               
    86 cmax[3,9]                  16            -0               
    87 cmax[3,10]                 16            -0               
    88 cmax[3,11]                 16            -0               
    89 cmax[3,12]                 16            -0               
    90 cmax[3,13]                 16            -0               
    91 cmax[3,14]                 16            -0               
    92 cmax[3,15]                 16            -0               
    93 cmax[3,16]                 16            -0               
    94 ressource[1,1]
                                   1                           8 
    95 ressource[1,2]
                                   1                           8 
    96 ressource[1,3]
                                   1                           8 
    97 ressource[1,4]
                                   1                           8 
    98 ressource[1,5]
                                   1                           8 
    99 ressource[1,6]
                                   3                           8 
   100 ressource[1,7]
                                   3                           8 
   101 ressource[1,8]
                                   3                           8 
   102 ressource[1,9]
                                   3                           8 
   103 ressource[1,10]
                                   3                           8 
   104 ressource[1,11]
                                   3                           8 
   105 ressource[1,12]
                                   3                           8 
   106 ressource[1,13]
                                   2                           8 
   107 ressource[1,14]
                                   2                           8 
   108 ressource[1,15]
                                   2                           8 
   109 ressource[1,16]
                                   2                           8 
   110 ressource[2,1]
                                   5                          11 
   111 ressource[2,2]
                                   5                          11 
   112 ressource[2,3]
                                   5                          11 
   113 ressource[2,4]
                                   5                          11 
   114 ressource[2,5]
                                   5                          11 
   115 ressource[2,6]
                                   7                          11 
   116 ressource[2,7]
                                   7                          11 
   117 ressource[2,8]
                                   7                          11 
   118 ressource[2,9]
                                   7                          11 
   119 ressource[2,10]
                                   7                          11 
   120 ressource[2,11]
                                   7                          11 
   121 ressource[2,12]
                                   7                          11 
   122 ressource[2,13]
                                   7                          11 
   123 ressource[2,14]
                                   7                          11 
   124 ressource[2,15]
                                   7                          11 
   125 ressource[2,16]
                                   7                          11 
   126 ressource[3,1]
                                   1                          19 
   127 ressource[3,2]
                                   1                          19 
   128 ressource[3,3]
                                   1                          19 
   129 ressource[3,4]
                                   1                          19 
   130 ressource[3,5]
                                   1                          19 
   131 ressource[3,6]
                                   1                          19 
   132 ressource[3,7]
                                   1                          19 
   133 ressource[3,8]
                                   1                          19 
   134 ressource[3,9]
                                   1                          19 
   135 ressource[3,10]
                                   1                          19 
   136 ressource[3,11]
                                   1                          19 
   137 ressource[3,12]
                                   1                          19 
   138 ressource[3,13]
                                   4                          19 
   139 ressource[3,14]
                                   4                          19 
   140 ressource[3,15]
                                   4                          19 
   141 ressource[3,16]
                                   4                          19 
   142 obj                        16                             

   No. Column name       Activity     Lower bound   Upper bound
------ ------------    ------------- ------------- -------------
     1 x[1,1]       *              0             0             1 
     2 x[1,2]       *              0             0             1 
     3 x[1,3]       *              0             0             1 
     4 x[1,4]       *              0             0             1 
     5 x[1,5]       *              0             0             1 
     6 x[1,6]       *              0             0             1 
     7 x[1,7]       *              0             0             1 
     8 x[1,8]       *              0             0             1 
     9 x[1,9]       *              0             0             1 
    10 x[1,10]      *              0             0             1 
    11 x[1,11]      *              0             0             1 
    12 x[1,12]      *              0             0             1 
    13 x[1,13]      *              1             0             1 
    14 x[1,14]      *              1             0             1 
    15 x[1,15]      *              1             0             1 
    16 x[1,16]      *              1             0             1 
    17 x[2,1]       *              0             0             1 
    18 x[2,2]       *              0             0             1 
    19 x[2,3]       *              0             0             1 
    20 x[2,4]       *              0             0             1 
    21 x[2,5]       *              0             0             1 
    22 x[2,6]       *              1             0             1 
    23 x[2,7]       *              1             0             1 
    24 x[2,8]       *              1             0             1 
    25 x[2,9]       *              1             0             1 
    26 x[2,10]      *              1             0             1 
    27 x[2,11]      *              1             0             1 
    28 x[2,12]      *              1             0             1 
    29 x[2,13]      *              0             0             1 
    30 x[2,14]      *              0             0             1 
    31 x[2,15]      *              0             0             1 
    32 x[2,16]      *              0             0             1 
    33 x[3,1]       *              1             0             1 
    34 x[3,2]       *              1             0             1 
    35 x[3,3]       *              1             0             1 
    36 x[3,4]       *              1             0             1 
    37 x[3,5]       *              1             0             1 
    38 x[3,6]       *              0             0             1 
    39 x[3,7]       *              0             0             1 
    40 x[3,8]       *              0             0             1 
    41 x[3,9]       *              0             0             1 
    42 x[3,10]      *              0             0             1 
    43 x[3,11]      *              0             0             1 
    44 x[3,12]      *              0             0             1 
    45 x[3,13]      *              0             0             1 
    46 x[3,14]      *              0             0             1 
    47 x[3,15]      *              0             0             1 
    48 x[3,16]      *              0             0             1 
    49 z                          16                             

Integer feasibility conditions:

KKT.PE: max.abs.err = 0.00e+00 on row 0
        max.rel.err = 0.00e+00 on row 0
        High quality

KKT.PB: max.abs.err = 0.00e+00 on row 0
        max.rel.err = 0.00e+00 on row 0
        High quality

End of output
